language Essence 1.3

letting bot_end be [3089, 6166, 5529, 935, 926; int(1..5)]
letting bot_start be [44320, 56304, 39116, 44645, 54433; int(1..5)]
letting buffer_col be 2
letting buffer_row be 2
letting corridor_size be 6
letting n_shelves_col be 38
letting n_shelves_row be 26
letting shelf_col_size be 2
letting shelf_row_size be 1
